Maximize
  obj: -0 x0 +0 x1 +0 x2 +0 x3 -0 x4 -0 x5 +0 x6 +0 x7 +0 x8 +0 x9 -27 x10 -92 x11 -64 x12 -116 x13 +30 x14 +182 x15 +82 x16 +33 x17 +86 x18 -191 x19 
Subject to
  c1: +0 x0 +0 x1 +6 x2 +6 x3 +0 x4 +0 x5 +0 x6 +12 x7 +4 x8 +0 x9 +15 x10 <= 75
  c2: +17 x0 +0 x1 +9 x2 +16 x3 +0 x4 +13 x5 +0 x6 +0 x7 +3 x8 +13 x9 +5 x11 <= 93
  c3: +0 x0 +0 x1 +0 x2 +0 x3 +3 x4 +0 x5 +0 x6 +0 x7 +0 x8 +15 x9 +10 x12 <= 95
  c4: +2 x0 +0 x1 +0 x2 +0 x3 +19 x4 +0 x5 +8 x6 +0 x7 +10 x8 +0 x9 +8 x13 <= 69
  c5: +0 x0 +0 x1 +0 x2 +9 x3 +0 x4 +0 x5 +13 x6 +8 x7 +0 x8 +0 x9 +13 x14 <= 96
  c6: +4 x0 +0 x1 +0 x2 +0 x3 +0 x4 +0 x5 +0 x6 +0 x7 +0 x8 +0 x9 +18 x15 <= 83
  c7: +0 x0 +1 x1 +0 x2 +0 x3 +0 x4 +2 x5 +0 x6 +14 x7 +20 x8 +0 x9 +6 x16 <= 78
  c8: +16 x0 +0 x1 +3 x2 +0 x3 +0 x4 +7 x5 +0 x6 +0 x7 +19 x8 +0 x9 +7 x17 <= 88
  c9: +7 x0 +0 x1 +0 x2 +18 x3 +0 x4 +9 x5 +0 x6 +0 x7 +0 x8 +0 x9 +13 x18 <= 53
  c10: +0 x0 +0 x1 +7 x2 +0 x3 +0 x4 +0 x5 +9 x6 +0 x7 +0 x8 +19 x9 +13 x19 <= 78
  c11: +7 x0 +9 x1 +5 x2 +14 x3 +12 x4 +0 x5 +10 x6 +0 x7 +0 x8 +18 x9 <= 73
  c12: +0 x0 +6 x1 +14 x2 +14 x3 +0 x4 +0 x5 -1 x6 +18 x7 +3 x8 +0 x9 <= 100
  c13: +19 x0 +0 x1 +4 x2 +0 x3 +0 x4 +0 x5 +17 x6 +0 x7 +12 x8 -1 x9 <= 99
  c14: +10 x0 +0 x1 +0 x2 +0 x3 +0 x4 +16 x5 +0 x6 +15 x7 +6 x8 +20 x9 <= 55
  c15: +0 x0 +0 x1 +16 x2 +8 x3 +5 x4 +14 x5 +0 x6 +8 x7 +0 x8 +0 x9 <= 51
  c16: +0 x0 +0 x1 +0 x2 +3 x3 +0 x4 +0 x5 +17 x6 +0 x7 +0 x8 +11 x9 <= 95
  c17: +0 x0 +0 x1 -1 x2 +0 x3 +0 x4 +0 x5 +0 x6 +14 x7 +0 x8 +0 x9 <= 86
  c18: +0 x0 +2 x1 +0 x2 +0 x3 +0 x4 +0 x5 +0 x6 +0 x7 +14 x8 +0 x9 <= 96
  c19: +0 x0 +0 x1 +12 x2 +9 x3 +19 x4 +13 x5 +0 x6 +10 x7 +13 x8 +13 x9 <= 73
  c20: + x10 + x11 + x12 + x13 + x14 + x15 + x16 + x17 + x18 + x19 <= 3.333333
Binary
 x10
 x11
 x12
 x13
 x14
 x15
 x16
 x17
 x18
 x19
End
